(set-logic QF_S)
(declare-const x String)
(assert (str.in.re x (re.inter  (re.++ (re.+ (re.union (re.range "\u{00}" "\u{09}") (re.range "\u{0b}" "\u{0c}") (re.range "\u{0e}" "\u{84}") (re.range "\u{86}" "\u{ff}")) ) (re.+ (re.union (re.range "\u{00}" "\u{09}") (re.range "\u{0b}" "\u{0c}") (re.range "\u{0e}" "\u{84}") (re.range "\u{86}" "\u{ff}")) ))  (re.++ (re.+ (re.union (re.range "\u{00}" "\u{09}") (re.range "\u{0b}" "\u{0c}") (re.range "\u{0e}" "\u{84}") (re.range "\u{86}" "\u{ff}")) ) (re.++  (re.++  (str.to.re "\u{3c}") (re.++  (str.to.re "\u{2f}") (re.++  (str.to.re "\u{54}") (re.++  (str.to.re "\u{49}") (re.++  (str.to.re "\u{54}") (re.++  (str.to.re "\u{4c}") (re.++  (str.to.re "\u{45}") (re.++  (str.to.re "\u{3e}") (re.++  (str.to.re "\u{3c}") (re.++  (str.to.re "\u{52}") (re.++  (str.to.re "\u{45}") (re.++  (str.to.re "\u{46}") (re.++  (str.to.re "\u{20}") (re.++  (str.to.re "\u{68}") (re.++  (str.to.re "\u{72}") (re.++  (str.to.re "\u{65}") (re.++  (str.to.re "\u{66}") (re.++  (str.to.re "\u{3d}")  (str.to.re "\u{22}"))))))))))))))))))) (re.+ (re.union (re.range "\u{00}" "\u{09}") (re.range "\u{0b}" "\u{0c}") (re.range "\u{0e}" "\u{84}") (re.range "\u{86}" "\u{ff}")) ))) )))
(check-sat)
(get-model)